(set-info :status unsat)
(declare-const symbol_187 (_ BitVec 32))
(declare-const symbol_140 (_ BitVec 32))
(declare-const symbol_90 (_ BitVec 32))
(declare-const symbol_71 (_ BitVec 32))
(declare-const symbol_150 (_ BitVec 32))
(declare-const symbol_35 (_ BitVec 32))
(declare-const symbol_25 (_ BitVec 32))
(declare-const symbol_175 (_ BitVec 32))
(declare-const symbol_144 (_ BitVec 32))
(declare-const symbol_112 (_ BitVec 32))
(declare-const symbol_27 (_ BitVec 32))
(declare-const symbol_189 (_ BitVec 32))
(declare-const symbol_73 (_ BitVec 32))
(declare-const symbol_42 (_ BitVec 32))
(declare-const symbol_110 (_ BitVec 32))
(declare-const symbol_198 (_ BitVec 32))
(declare-const symbol_58 (_ BitVec 32))
(declare-const symbol_152 (_ BitVec 32))
(declare-const symbol_115 (_ BitVec 32))
(declare-const symbol_33 (_ BitVec 32))
(declare-const symbol_164 (_ BitVec 32))
(declare-const symbol_106 (_ BitVec 32))
(declare-const symbol_130 (_ BitVec 32))
(declare-const symbol_157 (_ BitVec 32))
(declare-const symbol_168 (_ BitVec 32))
(declare-const symbol_128 (_ BitVec 32))
(declare-const symbol_77 (_ BitVec 32))
(declare-const symbol_60 (_ BitVec 32))
(declare-const symbol_84 (_ BitVec 32))
(declare-const symbol_75 (_ BitVec 32))
(declare-const symbol_135 (_ BitVec 32))
(declare-const symbol_29 (_ BitVec 32))
(declare-const symbol_23 (_ BitVec 32))
(declare-const symbol_15 (_ BitVec 32))
(declare-const symbol_0 (_ BitVec 32))
(declare-const symbol_166 (_ BitVec 32))
(declare-const symbol_92 (_ BitVec 32))
(declare-const symbol_44 (_ BitVec 32))
(declare-const symbol_161 (_ BitVec 32))
(declare-const symbol_179 (_ BitVec 32))
(declare-const symbol_103 (_ BitVec 32))
(declare-const symbol_181 (_ BitVec 32))
(declare-const symbol_64 (_ BitVec 32))
(declare-const symbol_183 (_ BitVec 32))
(declare-const symbol_108 (_ BitVec 32))
(declare-const symbol_133 (_ BitVec 32))
(declare-const symbol_11 (_ BitVec 32))
(declare-const symbol_3 (_ BitVec 32))
(declare-const symbol_123 (_ BitVec 32))
(declare-const symbol_145 (_ BitVec 32))
(declare-const symbol_126 (_ BitVec 32))
(declare-const symbol_117 (_ BitVec 32))
(declare-const symbol_46 (_ BitVec 32))
(declare-const symbol_38 (_ BitVec 32))
(declare-const symbol_196 (_ BitVec 32))
(declare-const symbol_6 (_ BitVec 32))
(declare-const symbol_1 (_ BitVec 32))
(declare-const symbol_185 (_ BitVec 32))
(declare-const symbol_94 (_ BitVec 32))
(declare-const symbol_191 (_ BitVec 32))
(declare-const symbol_79 (_ BitVec 32))
(declare-const symbol_62 (_ BitVec 32))
(declare-const symbol_173 (_ BitVec 32))
(declare-const symbol_97 (_ BitVec 32))
(declare-const symbol_177 (_ BitVec 32))
(declare-const symbol_50 (_ BitVec 32))
(declare-const symbol_18 (_ BitVec 32))
(declare-const symbol_170 (_ BitVec 32))
(declare-const symbol_66 (_ BitVec 32))
(declare-const symbol_40 (_ BitVec 32))
(declare-const symbol_21 (_ BitVec 32))
(declare-const symbol_88 (_ BitVec 32))
(declare-const symbol_99 (_ BitVec 32))
(declare-const symbol_101 (_ BitVec 32))
(declare-const symbol_154 (_ BitVec 32))
(declare-const symbol_86 (_ BitVec 32))
(declare-const symbol_142 (_ BitVec 32))
(declare-const symbol_31 (_ BitVec 32))
(declare-const symbol_121 (_ BitVec 32))
(declare-const symbol_13 (_ BitVec 32))
(declare-const symbol_194 (_ BitVec 32))
(declare-const symbol_53 (_ BitVec 32))
(declare-const symbol_56 (_ BitVec 32))
(declare-const symbol_159 (_ BitVec 32))
(declare-const symbol_148 (_ BitVec 32))
(declare-const symbol_138 (_ BitVec 32))
(declare-const symbol_69 (_ BitVec 32))
(declare-const symbol_8 (_ BitVec 32))
(declare-const symbol_119 (_ BitVec 32))
(declare-const symbol_81 (_ BitVec 32))
(declare-const symbol_48 (_ BitVec 32))
(assert (= symbol_198 (_ bv4 32)))
(assert (not (not (= symbol_198 (_ bv5 32)))))
(assert (not (not (= symbol_196 (_ bv5 32)))))
(assert (not (not (= symbol_194 (_ bv5 32)))))
(assert (not (not (= symbol_191 (_ bv5 32)))))
(assert (not (not (= symbol_189 (_ bv5 32)))))
(assert (not (not (= symbol_187 (_ bv5 32)))))
(assert (not (not (= symbol_185 (_ bv5 32)))))
(assert (not (not (= symbol_183 (_ bv5 32)))))
(assert (not (not (= symbol_181 (_ bv5 32)))))
(assert (not (not (= symbol_179 (_ bv5 32)))))
(assert (not (not (= symbol_177 (_ bv5 32)))))
(assert (not (not (= symbol_175 (_ bv5 32)))))
(assert (not (not (= symbol_173 (_ bv5 32)))))
(assert (not (not (= symbol_170 (_ bv5 32)))))
(assert (not (not (= symbol_168 (_ bv5 32)))))
(assert (not (not (= symbol_166 (_ bv5 32)))))
(assert (not (not (= symbol_164 (_ bv5 32)))))
(assert (not (not (= symbol_161 (_ bv5 32)))))
(assert (not (not (= symbol_159 (_ bv5 32)))))
(assert (not (not (= symbol_157 (_ bv5 32)))))
(assert (not (not (= symbol_154 (_ bv5 32)))))
(assert (not (not (= symbol_152 (_ bv5 32)))))
(assert (not (not (= symbol_150 (_ bv5 32)))))
(assert (not (not (= symbol_148 (_ bv5 32)))))
(assert (not (not (= symbol_145 (_ bv5 32)))))
(assert (not (not (= symbol_144 (_ bv5 32)))))
(assert (not (not (= symbol_142 (_ bv5 32)))))
(assert (not (not (= symbol_140 (_ bv5 32)))))
(assert (not (not (= symbol_138 (_ bv5 32)))))
(assert (not (not (= symbol_135 (_ bv5 32)))))
(assert (not (not (= symbol_133 (_ bv5 32)))))
(assert (not (not (= symbol_130 (_ bv5 32)))))
(assert (not (not (= symbol_128 (_ bv5 32)))))
(assert (not (not (= symbol_126 (_ bv5 32)))))
(assert (not (not (= symbol_123 (_ bv5 32)))))
(assert (not (not (= symbol_121 (_ bv5 32)))))
(assert (not (not (= symbol_119 (_ bv5 32)))))
(assert (not (not (= symbol_117 (_ bv5 32)))))
(assert (not (not (= symbol_115 (_ bv5 32)))))
(assert (not (not (= symbol_112 (_ bv5 32)))))
(assert (not (not (= symbol_110 (_ bv5 32)))))
(assert (not (not (= symbol_108 (_ bv5 32)))))
(assert (not (not (= symbol_106 (_ bv5 32)))))
(assert (not (not (= symbol_103 (_ bv5 32)))))
(assert (not (not (= symbol_101 (_ bv5 32)))))
(assert (not (not (= symbol_99 (_ bv5 32)))))
(assert (not (not (= symbol_97 (_ bv5 32)))))
(assert (not (not (= symbol_94 (_ bv5 32)))))
(assert (not (not (= symbol_92 (_ bv5 32)))))
(assert (not (not (= symbol_90 (_ bv5 32)))))
(assert (not (not (= symbol_88 (_ bv5 32)))))
(assert (not (not (= symbol_86 (_ bv5 32)))))
(assert (not (not (= symbol_84 (_ bv5 32)))))
(assert (not (not (= symbol_81 (_ bv5 32)))))
(assert (not (not (= symbol_79 (_ bv5 32)))))
(assert (not (not (= symbol_77 (_ bv5 32)))))
(assert (not (not (= symbol_75 (_ bv5 32)))))
(assert (not (not (= symbol_73 (_ bv5 32)))))
(assert (not (not (= symbol_71 (_ bv5 32)))))
(assert (not (not (= symbol_69 (_ bv5 32)))))
(assert (not (not (= symbol_66 (_ bv5 32)))))
(assert (not (not (= symbol_64 (_ bv5 32)))))
(assert (not (not (= symbol_62 (_ bv5 32)))))
(assert (not (not (= symbol_60 (_ bv5 32)))))
(assert (not (not (= symbol_58 (_ bv5 32)))))
(assert (not (not (= symbol_56 (_ bv5 32)))))
(assert (not (not (= symbol_53 (_ bv5 32)))))
(assert (not (not (= symbol_50 (_ bv5 32)))))
(assert (not (not (= symbol_48 (_ bv5 32)))))
(assert (not (not (= symbol_46 (_ bv5 32)))))
(assert (not (not (= symbol_44 (_ bv5 32)))))
(assert (not (not (= symbol_42 (_ bv5 32)))))
(assert (not (not (= symbol_40 (_ bv5 32)))))
(assert (not (not (= symbol_38 (_ bv5 32)))))
(assert (not (not (= symbol_35 (_ bv5 32)))))
(assert (not (not (= symbol_33 (_ bv5 32)))))
(assert (not (not (= symbol_31 (_ bv5 32)))))
(assert (not (not (= symbol_29 (_ bv5 32)))))
(assert (not (not (= symbol_27 (_ bv5 32)))))
(assert (not (not (= symbol_25 (_ bv5 32)))))
(assert (not (not (= symbol_23 (_ bv5 32)))))
(assert (not (not (= symbol_21 (_ bv5 32)))))
(assert (not (not (= symbol_18 (_ bv5 32)))))
(assert (not (not (= symbol_15 (_ bv5 32)))))
(assert (not (not (= symbol_13 (_ bv5 32)))))
(assert (not (not (= symbol_11 (_ bv5 32)))))
(assert (not (not (= symbol_8 (_ bv5 32)))))
(assert (not (not (= symbol_6 (_ bv5 32)))))
(assert (not (not (= symbol_3 (_ bv5 32)))))
(assert (not (not (= symbol_1 (_ bv5 32)))))
(assert (not (not (= symbol_0 (_ bv5 32)))))
(check-sat)